1 1 -2 0
1 3 4 0
1 3 -5 0
1 -6 7 0
1 -6 5 0
1 -6 8 0
1 -7 9 0
1 -7 10 0
1 -7 -11 0
1 -7 12 0
1 7 13 0
1 -5 14 0
1 5 15 0
1 5 -16 0
1 16 -14 0
1 16 -17 0
1 16 6 0
1 -12 18 0
1 -12 19 0
1 12 3 0
1 -12 -17 0
1 -20 19 0
1 20 -12 0
1 -20 -17 0
1 -20 -21 0
1 20 6 0
1 22 10 0
1 22 -23 0
1 22 16 0
1 -24 9 0
1 -24 -25 0
1 24 -5 0
1 26 10 0
1 -26 -5 0
1 -26 -27 0
1 14 26 0
1 14 -27 0
1 14 16 0
1 -23 -28 0
1 -23 -24 0
1 23 -29 0
1 23 -30 0
1 23 26 0
1 10 -30 0
1 -10 23 0
1 10 22 0
1 10 31 0
1 -13 -32 0
1 13 33 0
1 -9 34 0
1 9 -24 0
1 -9 22 0
1 -30 35 0
1 -30 -36 0
1 -30 27 0
1 -30 37 0
1 35 23 0
1 -35 -27 0
1 -28 -38 0
1 -28 -36 0
1 -28 39 0
1 37 -35 0
1 37 -14 0
1 37 -40 0
1 -37 -30 0
1 -37 -41 0
1 36 -28 0
1 -36 -14 0
1 -36 -40 0
1 -36 -37 0
1 -27 40 0
1 27 42 0
1 -38 43 0
1 38 30 0
1 38 26 0
1 38 44 0
1 2 -45 0
1 -4 46 0
1 -4 -3 0
1 -4 47 0
1 -4 -45 0
1 8 -48 0
1 -8 -49 0
1 -8 -50 0
1 8 51 0
1 -8 -52 0
1 11 48 0
1 -11 -52 0
1 -46 -19 0
1 46 53 0
1 46 11 0
1 46 21 0
1 -45 4 0
1 45 -21 0
1 -45 -54 0
1 -45 2 0
1 -48 55 0
1 56 57 0
1 -54 -25 0
1 -54 -12 0
1 -54 52 0
1 54 22 0
1 -25 58 0
1 -25 -45 0
1 25 52 0
1 25 20 0
1 21 50 0
1 -21 -26 0
1 -21 55 0
1 19 -21 0
1 -19 59 0
1 50 -60 0
1 50 52 0
1 -50 32 0
1 50 25 0
1 -50 -61 0
1 52 -19 0
1 52 -50 0
1 52 -62 0
1 -52 -21 0
1 49 -63 0
1 -49 -21 0
1 -51 64 0
1 51 65 0
1 51 66 0
1 -51 -54 0
1 17 18 0
1 17 67 0
1 17 -13 0
1 17 -30 0
1 -18 35 0
1 -18 68 0
1 18 69 0
1 33 -70 0
1 33 -39 0
1 32 9 0
1 -32 15 0
1 32 13 0
1 -32 52 0
1 -67 32 0
1 -67 -71 0
1 -67 -72 0
1 67 -73 0
1 67 21 0
1 -67 44 0
1 59 -67 0
1 59 72 0
1 59 -74 0
1 59 -75 0
1 -68 32 0
1 68 76 0
1 -68 17 0
1 -68 75 0
1 -69 18 0
1 -69 -19 0
1 -69 68 0
1 -69 -17 0
1 29 70 0
1 29 62 0
1 -29 -13 0
1 29 -23 0
1 29 59 0
1 29 -77 0
1 -29 31 0
1 -31 23 0
1 -72 -70 0
1 -72 59 0
1 -72 77 0
1 -44 34 0
1 -44 78 0
1 44 -67 0
1 44 -79 0
1 -44 27 0
1 -15 40 0
1 -15 -80 0
1 70 32 0
1 -70 -81 0
1 70 33 0
1 82 81 0
1 -82 83 0
1 82 -72 0
1 -82 -84 0
1 82 -33 0
1 82 -85 0
1 -82 -75 0
1 -77 32 0
1 77 81 0
1 77 71 0
1 -77 -86 0
1 77 -31 0
1 40 37 0
1 40 42 0
1 -42 78 0
1 -42 -27 0
1 87 78 0
1 87 -43 0
1 80 -70 0
1 80 78 0
1 -80 -15 0
1 80 -88 0
1 89 78 0
1 89 40 0
1 -89 23 0
1 -89 90 0
1 89 91 0
1 -89 -42 0
1 78 10 0
1 -78 42 0
1 -79 -92 0
1 79 -93 0
1 -79 -80 0
1 79 -44 0
1 -34 -9 0
1 34 -94 0
1 -34 87 0
1 34 -95 0
1 34 -42 0
1 -96 41 0
1 91 96 0
1 91 97 0
1 91 -93 0
1 -91 41 0
1 98 78 0
1 98 43 0
1 98 92 0
1 98 -99 0
1 -98 89 0
1 99 43 0
1 41 96 0
1 41 99 0
1 -41 91 0
1 -97 100 0
1 97 -96 0
1 88 -100 0
1 -88 -43 0
1 88 95 0
1 -43 100 0
1 43 -38 0
1 43 101 0
1 -43 87 0
1 43 -95 0
1 43 -99 0
1 47 102 0
1 -47 103 0
1 -47 104 0
1 47 105 0
1 -106 -107 0
1 106 -108 0
1 106 -104 0
1 -106 -109 0
1 -108 -110 0
1 108 -11 0
1 -108 -111 0
1 -108 -104 0
1 -108 -109 0
1 108 106 0
1 -104 102 0
1 -102 112 0
1 -102 55 0
1 113 114 0
1 -113 115 0
1 -113 116 0
1 -113 -117 0
1 113 -108 0
1 -113 -118 0
1 113 106 0
1 113 105 0
1 107 119 0
1 107 -117 0
1 -107 -120 0
1 -107 -118 0
1 -121 -48 0
1 121 122 0
1 121 104 0
1 -121 -123 0
1 58 -48 0
1 -58 -121 0
1 -55 -102 0
1 -55 -110 0
1 -55 104 0
1 -55 -109 0
1 -55 -123 0
1 -124 -125 0
1 124 -19 0
1 124 -116 0
1 124 110 0
1 124 126 0
1 124 56 0
1 -124 55 0
1 124 -127 0
1 123 -128 0
1 123 -64 0
1 123 63 0
1 -123 108 0
1 -123 -129 0
1 123 -65 0
1 -123 57 0
1 123 121 0
1 123 130 0
1 122 129 0
1 122 57 0
1 122 106 0
1 -109 131 0
1 109 115 0
1 -109 -129 0
1 109 121 0
1 109 -132 0
1 -109 106 0
1 -110 -115 0
1 -110 -133 0
1 110 55 0
1 110 -106 0
1 -57 -125 0
1 57 -46 0
1 57 63 0
1 -57 -134 0
1 -63 -46 0
1 63 122 0
1 -63 134 0
1 -63 45 0
1 63 -127 0
1 -65 -126 0
1 -65 135 0
1 -65 51 0
1 64 125 0
1 -64 49 0
1 64 -134 0
1 64 -123 0
1 125 -63 0
1 125 -62 0
1 125 -136 0
1 126 -125 0
1 126 -65 0
1 126 137 0
1 127 64 0
1 127 138 0
1 127 -139 0
1 -134 124 0
1 134 -65 0
1 -134 -57 0
1 -134 137 0
1 -134 127 0
1 134 139 0
1 -62 -50 0
1 -62 68 0
1 62 29 0
1 -62 -140 0
1 -62 -51 0
1 -60 -53 0
1 -60 50 0
1 -60 51 0
1 141 -125 0
1 141 -72 0
1 141 140 0
1 -141 66 0
1 141 -136 0
1 136 -125 0
1 136 142 0
1 -136 -61 0
1 136 -135 0
1 -136 -66 0
1 -136 69 0
1 -136 -44 0
1 -136 139 0
1 53 -46 0
1 53 83 0
1 -53 62 0
1 -53 -65 0
1 -53 143 0
1 -135 64 0
1 -135 -53 0
1 -135 144 0
1 145 60 0
1 -145 48 0
1 145 146 0
1 145 62 0
1 145 -65 0
1 -145 -143 0
1 -140 64 0
1 -140 145 0
1 -140 -147 0
1 140 146 0
1 140 -141 0
1 -140 -65 0
1 140 -148 0
1 -71 -67 0
1 71 -146 0
1 71 149 0
1 -71 -59 0
1 -71 -77 0
1 -75 67 0
1 -75 -71 0
1 75 135 0
1 75 149 0
1 -75 69 0
1 75 -42 0
1 -75 -77 0
1 -83 150 0
1 -83 -87 0
1 83 -151 0
1 -83 135 0
1 83 74 0
1 85 142 0
1 85 82 0
1 85 135 0
1 -85 66 0
1 -85 -150 0
1 -85 148 0
1 -61 149 0
1 61 -152 0
1 61 -83 0
1 -61 -136 0
1 -149 -152 0
1 149 -85 0
1 -142 49 0
1 -142 -153 0
1 -142 -71 0
1 -142 141 0
1 142 -75 0
1 -66 -147 0
1 66 -83 0
1 -66 143 0
1 -81 70 0
1 81 96 0
1 81 76 0
1 81 73 0
1 -81 82 0
1 -93 -76 0
1 93 -82 0
1 -93 -79 0
1 93 91 0
1 -93 -74 0
1 92 98 0
1 92 154 0
1 -92 61 0
1 -92 -73 0
1 -92 -84 0
1 92 -155 0
1 92 149 0
1 -155 -156 0
1 -155 34 0
1 155 -92 0
1 -155 76 0
1 -155 74 0
1 -155 86 0
1 73 157 0
1 73 94 0
1 73 67 0
1 -73 -74 0
1 74 157 0
1 -74 -158 0
1 74 92 0
1 -74 -81 0
1 74 159 0
1 74 -95 0
1 74 93 0
1 -74 85 0
1 76 152 0
1 76 -81 0
1 76 -68 0
1 76 -159 0
1 -150 83 0
1 -150 159 0
1 -150 -160 0
1 -150 93 0
1 150 -69 0
1 94 43 0
1 94 84 0
1 94 -161 0
1 94 -89 0
1 -95 -161 0
1 -95 79 0
1 -95 -88 0
1 158 162 0
1 -158 -43 0
1 158 90 0
1 -158 86 0
1 -163 156 0
1 -163 -162 0
1 163 84 0
1 163 -74 0
1 -161 -92 0
1 -161 164 0
1 -161 163 0
1 -161 15 0
1 -161 165 0
1 161 166 0
1 -156 70 0
1 156 -158 0
1 -156 94 0
1 84 -157 0
1 84 164 0
1 -84 95 0
1 -84 -167 0
1 86 168 0
1 -86 -94 0
1 -86 -92 0
1 86 -164 0
1 86 155 0
1 -86 167 0
1 -100 -169 0
1 -100 -162 0
1 -100 -170 0
1 -100 -88 0
1 -171 -172 0
1 -171 -161 0
1 171 173 0
1 174 -175 0
1 -174 161 0
1 174 -173 0
1 174 -90 0
1 174 171 0
1 -90 -176 0
1 90 -177 0
1 90 -178 0
1 90 89 0
1 90 179 0
1 90 180 0
1 -90 171 0
1 162 -158 0
1 -162 -78 0
1 162 178 0
1 162 -181 0
1 162 -171 0
1 173 169 0
1 173 -176 0
1 173 -164 0
1 -173 174 0
1 173 163 0
1 173 -182 0
1 -173 -179 0
1 169 183 0
1 -169 -163 0
1 -181 -178 0
1 -181 -90 0
1 -181 -184 0
1 -181 185 0
1 178 -90 0
1 178 185 0
1 180 -162 0
1 180 90 0
1 177 184 0
1 185 -177 0
1 185 -172 0
1 -185 174 0
1 -185 -180 0
1 185 -181 0
1 -172 185 0
1 172 -97 0
1 -172 186 0
1 -172 -181 0
1 -172 171 0
1 -184 -176 0
1 184 178 0
1 184 -181 0
1 -101 -187 0
1 101 -43 0
1 -101 186 0
1 101 -179 0
1 101 171 0
1 -188 189 0
1 -188 -190 0
1 -103 191 0
1 103 189 0
1 192 193 0
1 -192 194 0
1 -192 -195 0
1 -111 189 0
1 -111 190 0
1 111 194 0
1 -111 192 0
1 111 196 0
1 189 116 0
1 189 -117 0
1 189 -103 0
1 -189 197 0
1 -189 120 0
1 189 192 0
1 -189 188 0
1 -194 -117 0
1 194 -103 0
1 194 -197 0
1 -194 -120 0
1 -194 118 0
1 191 -198 0
1 -191 -111 0
1 191 199 0
1 191 -190 0
1 -191 -200 0
1 190 -191 0
1 -190 -103 0
1 190 192 0
1 -118 -189 0
1 118 -201 0
1 118 121 0
1 118 200 0
1 118 -202 0
1 -118 196 0
1 -117 107 0
1 117 -58 0
1 117 189 0
1 117 113 0
1 -117 202 0
1 -120 -116 0
1 120 -189 0
1 120 193 0
1 116 203 0
1 -116 -204 0
1 -116 107 0
1 -116 -124 0
1 -116 -205 0
1 116 -113 0
1 -116 -120 0
1 116 202 0
1 201 206 0
1 -201 -192 0
1 -196 131 0
1 196 207 0
1 -196 112 0
1 -193 -208 0
1 -193 209 0
1 -193 116 0
1 193 -111 0
1 193 -210 0
1 202 -206 0
1 202 -209 0
1 202 -197 0
1 -202 -118 0
1 112 -204 0
1 -112 -110 0
1 -112 201 0
1 -112 211 0
1 112 -57 0
1 -115 -205 0
1 -115 -112 0
1 115 -196 0
1 212 204 0
1 -212 -131 0
1 212 -213 0
1 131 203 0
1 -131 -110 0
1 -131 -201 0
1 -131 212 0
1 131 -109 0
1 -131 196 0
1 211 212 0
1 211 -120 0
1 204 128 0
1 204 214 0
1 -204 116 0
1 204 138 0
1 204 211 0
1 204 -215 0
1 205 115 0
1 -205 112 0
1 -205 215 0
1 203 -206 0
1 203 131 0
1 -203 -115 0
1 203 -120 0
1 -203 -215 0
1 -129 216 0
1 129 110 0
1 129 -211 0
1 129 -213 0
1 -128 -204 0
1 -128 216 0
1 -128 -129 0
1 -128 -211 0
1 128 213 0
1 -138 132 0
1 -138 130 0
1 139 -217 0
1 -139 204 0
1 139 -216 0
1 139 -133 0
1 -139 138 0
1 -139 136 0
1 -213 128 0
1 -213 216 0
1 213 -151 0
1 -213 -104 0
1 216 218 0
1 -216 219 0
1 -216 -151 0
1 -216 138 0
1 216 -213 0
1 -216 -137 0
1 -216 -139 0
1 114 -220 0
1 114 139 0
1 -119 107 0
1 -119 221 0
1 119 222 0
1 -146 -145 0
1 146 216 0
1 -146 -126 0
1 -146 213 0
1 146 -127 0
1 137 125 0
1 -137 127 0
1 137 133 0
1 -137 -140 0
1 137 75 0
1 -137 130 0
1 -151 -223 0
1 151 -130 0
1 -148 223 0
1 148 -145 0
1 148 216 0
1 148 133 0
1 -148 -224 0
1 148 225 0
1 -148 -213 0
1 -148 222 0
1 130 -226 0
1 -130 147 0
1 130 151 0
1 130 -146 0
1 -130 138 0
1 -224 226 0
1 224 -122 0
1 -224 130 0
1 -224 -137 0
1 132 219 0
1 -132 -138 0
1 132 227 0
1 -132 -228 0
1 -132 -148 0
1 132 -229 0
1 -133 -230 0
1 -133 231 0
1 -133 146 0
1 -133 -132 0
1 -133 -220 0
1 -147 -145 0
1 -147 53 0
1 -147 -81 0
1 -147 -219 0
1 -147 -225 0
1 147 -232 0
1 147 135 0
1 143 147 0
1 143 -225 0
1 143 -232 0
1 -143 135 0
1 143 130 0
1 -143 -233 0
1 -154 234 0
1 154 224 0
1 -154 232 0
1 -154 -235 0
1 -236 -223 0
1 -236 -234 0
1 236 -154 0
1 -236 -66 0
1 236 155 0
1 223 -125 0
1 223 237 0
1 -223 -160 0
1 -223 236 0
1 232 -152 0
1 232 126 0
1 -232 238 0
1 232 -148 0
1 233 239 0
1 -233 -226 0
1 233 -154 0
1 -233 -151 0
1 233 225 0
1 233 -238 0
1 233 -236 0
1 -233 -148 0
1 225 -154 0
1 225 151 0
1 225 134 0
1 225 240 0
1 -225 238 0
1 225 -227 0
1 -225 -236 0
1 -152 223 0
1 152 -226 0
1 -152 -76 0
1 152 232 0
1 -241 -242 0
1 -241 -76 0
1 -241 95 0
1 241 144 0
1 237 239 0
1 -237 -144 0
1 -237 -243 0
1 237 150 0
1 160 -223 0
1 160 -242 0
1 -160 163 0
1 160 -244 0
1 160 -235 0
1 -160 144 0
1 160 245 0
1 -242 152 0
1 242 -154 0
1 -242 246 0
1 242 -175 0
1 144 -242 0
1 -144 -154 0
1 144 246 0
1 144 -159 0
1 144 160 0
1 234 -247 0
1 234 -154 0
1 -234 235 0
1 -234 -236 0
1 235 247 0
1 157 -248 0
1 157 -144 0
1 157 245 0
1 -157 74 0
1 -159 -153 0
1 -159 73 0
1 -167 -249 0
1 167 -248 0
1 167 175 0
1 167 -144 0
1 167 243 0
1 -167 171 0
1 175 -250 0
1 175 -174 0
1 -175 -251 0
1 175 -144 0
1 -248 157 0
1 -248 -237 0
1 -248 183 0
1 248 252 0
1 -248 253 0
1 -248 167 0
1 243 -248 0
1 -243 252 0
1 -243 166 0
1 153 254 0
1 -153 -159 0
1 153 160 0
1 245 157 0
1 245 -255 0
1 -245 246 0
1 -245 -256 0
1 -166 169 0
1 -166 -248 0
1 -166 -173 0
1 -164 248 0
1 -164 -257 0
1 164 173 0
1 253 -169 0
1 253 -250 0
1 253 165 0
1 253 -173 0
1 253 -243 0
1 -183 169 0
1 183 -177 0
1 183 257 0
1 -257 -258 0
1 257 -176 0
1 -257 -183 0
1 257 -73 0
1 257 175 0
1 -257 259 0
1 257 -260 0
1 257 -166 0
1 -260 259 0
1 -260 -261 0
1 -260 -253 0
1 -260 262 0
1 250 -263 0
1 -250 254 0
1 -250 259 0
1 -250 264 0
1 -265 -258 0
1 -265 263 0
1 265 266 0
1 179 257 0
1 179 165 0
1 179 173 0
1 -176 169 0
1 -176 90 0
1 -261 267 0
1 261 101 0
1 261 257 0
1 261 -268 0
1 -261 165 0
1 261 -184 0
1 -187 -267 0
1 187 -263 0
1 -187 -165 0
1 -187 -260 0
1 165 -269 0
1 -165 -270 0
1 -165 161 0
1 165 271 0
1 -165 -261 0
1 -267 -156 0
1 267 -187 0
1 267 -183 0
1 267 270 0
1 267 -272 0
1 267 -165 0
1 -267 -186 0
1 267 -261 0
1 268 273 0
1 -268 187 0
1 -268 176 0
1 -268 -84 0
1 268 270 0
1 -268 -274 0
1 -168 275 0
1 168 -276 0
1 168 183 0
1 -168 268 0
1 -168 -261 0
1 168 -86 0
1 186 277 0
1 -186 172 0
1 -186 165 0
1 -186 182 0
1 -278 -172 0
1 278 184 0
1 278 185 0
1 272 -277 0
1 -272 -279 0
1 -272 -182 0
1 272 -280 0
1 269 -272 0
1 269 165 0
1 -280 -269 0
1 -280 -278 0
1 280 187 0
1 -280 279 0
1 -280 -281 0
1 -280 -282 0
1 -280 -272 0
1 280 -90 0
1 -280 -283 0
1 280 -284 0
1 279 269 0
1 279 -162 0
1 279 285 0
1 279 272 0
1 279 280 0
1 -182 -269 0
1 -182 -277 0
1 182 -272 0
1 182 -173 0
1 182 261 0
1 -182 286 0
1 -277 169 0
1 -277 -281 0
1 -277 270 0
1 277 261 0
1 277 -283 0
1 285 -279 0
1 284 -275 0
1 -284 -287 0
1 -284 288 0
1 284 -289 0
1 -282 279 0
1 -282 287 0
1 -282 -280 0
1 -290 291 0
1 290 -286 0
1 -289 292 0
1 289 -282 0
1 289 -185 0
1 -291 -269 0
1 -291 282 0
1 291 -289 0
1 291 -284 0
1 -288 269 0
1 -288 -293 0
1 -288 -294 0
1 288 -283 0
1 -288 -290 0
1 -287 295 0
1 -287 -288 0
1 -287 284 0
1 -296 -297 0
1 296 -298 0
1 -299 -298 0
1 -299 -103 0
1 -299 -300 0
1 195 -301 0
1 195 298 0
1 195 -302 0
1 -195 303 0
1 195 304 0
1 301 -297 0
1 -301 305 0
1 301 -306 0
1 -301 298 0
1 301 304 0
1 297 -299 0
1 302 297 0
1 302 307 0
1 -298 299 0
1 -200 198 0
1 198 -297 0
1 -198 306 0
1 198 -191 0
1 308 -305 0
1 308 -306 0
1 -308 302 0
1 -308 -309 0
1 -308 -310 0
1 307 116 0
1 -307 -309 0
1 -307 190 0
1 -307 -308 0
1 -306 -198 0
1 306 -197 0
1 -306 308 0
1 -306 195 0
1 -304 301 0
1 -304 -311 0
1 -304 312 0
1 304 -313 0
1 -304 308 0
1 -305 303 0
1 305 195 0
1 -303 -305 0
1 303 -198 0
1 -197 -310 0
1 197 190 0
1 -197 304 0
1 197 309 0
1 -197 112 0
1 -197 -194 0
1 209 -306 0
1 -209 -314 0
1 -209 -304 0
1 313 -208 0
1 313 314 0
1 313 199 0
1 -313 -315 0
1 -313 -193 0
1 -313 -304 0
1 313 -309 0
1 -208 -314 0
1 -208 316 0
1 -208 199 0
1 208 310 0
1 316 317 0
1 316 318 0
1 -316 -310 0
1 316 308 0
1 316 -319 0
1 -310 320 0
1 -310 -317 0
1 310 197 0
1 314 -317 0
1 -314 319 0
1 -309 208 0
1 309 317 0
1 -309 313 0
1 309 -197 0
1 -207 203 0
1 207 -199 0
1 -207 -321 0
1 -207 -202 0
1 -206 316 0
1 -206 -193 0
1 206 -201 0
1 -206 -196 0
1 -318 -217 0
1 -318 322 0
1 318 -315 0
1 -318 210 0
1 318 -138 0
1 318 -323 0
1 318 324 0
1 -217 322 0
1 217 203 0
1 -217 -310 0
1 -217 -325 0
1 217 324 0
1 -315 206 0
1 -315 326 0
1 -315 -221 0
1 315 -327 0
1 315 328 0
1 -315 -222 0
1 315 321 0
1 321 -329 0
1 -321 -221 0
1 -321 328 0
1 199 217 0
1 -199 207 0
1 199 319 0
1 -325 330 0
1 325 -318 0
1 -325 190 0
1 325 -331 0
1 -221 203 0
1 221 -204 0
1 221 315 0
1 -221 146 0
1 -221 210 0
1 215 322 0
1 215 323 0
1 215 114 0
1 215 321 0
1 -215 324 0
1 329 -322 0
1 329 -332 0
1 329 214 0
1 -329 -333 0
1 -329 210 0
1 329 334 0
1 329 -114 0
1 -329 -324 0
1 -222 148 0
1 222 321 0
1 323 -217 0
1 323 335 0
1 322 -217 0
1 322 230 0
1 -322 228 0
1 322 -215 0
1 -322 196 0
1 -210 326 0
1 210 336 0
1 210 -328 0
1 -324 337 0
1 324 326 0
1 -324 221 0
1 324 335 0
1 219 -322 0
1 219 -332 0
1 219 119 0
1 219 147 0
1 219 133 0
1 219 338 0
1 219 -132 0
1 -220 322 0
1 220 332 0
1 220 119 0
1 220 -133 0
1 -220 -219 0
1 220 213 0
1 -220 132 0
1 -220 338 0
1 -220 143 0
1 -230 339 0
1 -230 340 0
1 -230 218 0
1 230 -323 0
1 230 334 0
1 230 228 0
1 228 -230 0
1 -228 -132 0
1 -338 -244 0
1 338 227 0
1 -214 -226 0
1 -214 -341 0
1 214 -244 0
1 214 227 0
1 -214 338 0
1 -214 -228 0
1 -214 -222 0
1 334 332 0
1 334 -337 0
1 -334 -329 0
1 334 228 0
1 334 220 0
1 334 -222 0
1 332 -203 0
1 332 337 0
1 -332 342 0
1 332 -334 0
1 332 -220 0
1 -332 -222 0
1 -226 340 0
1 226 -133 0
1 -226 338 0
1 -226 343 0
1 227 -224 0
1 227 225 0
1 227 -241 0
1 -227 338 0
1 227 -132 0
1 -239 -214 0
1 -239 -340 0
1 239 -344 0
1 239 -229 0
1 -244 214 0
1 244 340 0
1 -244 -344 0
1 -244 160 0
1 -244 -338 0
1 343 251 0
1 343 -238 0
1 343 -213 0
1 343 345 0
1 218 -343 0
1 -339 -228 0
1 -340 -346 0
1 340 239 0
1 340 -347 0
1 340 -348 0
1 340 -342 0
1 340 227 0
1 -247 -157 0
1 247 234 0
1 247 229 0
1 238 -247 0
1 -238 -231 0
1 -238 -232 0
1 -238 -235 0
1 249 349 0
1 -249 -234 0
1 249 343 0
1 249 -229 0
1 -251 -218 0
1 -251 -231 0
1 -251 175 0
1 251 -240 0
1 -251 348 0
1 -251 -343 0
1 -350 247 0
1 -350 -246 0
1 350 -238 0
1 350 244 0
1 350 256 0
1 344 -247 0
1 344 224 0
1 344 351 0
1 -229 -249 0
1 229 247 0
1 229 -239 0
1 -229 251 0
1 229 352 0
1 -231 -247 0
1 -231 133 0
1 -231 353 0
1 231 -347 0
1 -231 -251 0
1 -231 352 0
1 -231 -345 0
1 246 -240 0
1 -246 -235 0
1 246 350 0
1 -256 354 0
1 256 355 0
1 -256 344 0
1 -256 -240 0
1 256 356 0
1 -256 357 0
1 -256 -245 0
1 256 -253 0
1 255 349 0
1 -255 -353 0
1 -255 -344 0
1 -255 -358 0
1 255 -245 0
1 359 223 0
1 359 -360 0
1 359 263 0
1 359 254 0
1 -359 246 0
1 -359 -252 0
1 -356 249 0
1 -356 254 0
1 -356 232 0
1 356 256 0
1 -349 251 0
1 -349 -361 0
1 240 249 0
1 240 -255 0
1 240 -225 0
1 -240 -251 0
1 252 254 0
1 252 153 0
1 -252 -245 0
1 -252 265 0
1 254 176 0
1 254 153 0
1 -254 -248 0
1 -254 356 0
1 -264 -362 0
1 264 363 0
1 -263 359 0
1 -263 358 0
1 -263 -264 0
1 -263 364 0
1 355 242 0
1 -355 259 0
1 358 -355 0
1 358 254 0
1 358 -255 0
1 -358 -365 0
1 358 264 0
1 -354 -366 0
1 354 367 0
1 354 -357 0
1 -357 -368 0
1 -357 360 0
1 357 254 0
1 -357 255 0
1 357 -366 0
1 -357 -235 0
1 -357 367 0
1 -357 -369 0
1 -259 -358 0
1 -259 363 0
1 258 -168 0
1 258 360 0
1 258 -259 0
1 -258 364 0
1 365 -168 0
1 -365 -273 0
1 365 -362 0
1 273 355 0
1 -273 -365 0
1 -273 358 0
1 -273 -363 0
1 -273 266 0
1 273 262 0
1 362 -248 0
1 362 -270 0
1 -362 370 0
1 -364 -362 0
1 -364 -264 0
1 364 243 0
1 364 -371 0
1 -372 -258 0
1 372 153 0
1 -372 -373 0
1 -372 -259 0
1 372 374 0
1 -363 263 0
1 -363 -259 0
1 363 264 0
1 -363 370 0
1 363 374 0
1 270 -275 0
1 -270 -168 0
1 -270 -362 0
1 -270 375 0
1 270 285 0
1 -270 -268 0
1 -270 -366 0
1 270 262 0
1 275 -168 0
1 275 277 0
1 -275 -362 0
1 -275 270 0
1 275 364 0
1 275 -266 0
1 275 -284 0
1 -376 -362 0
1 -376 377 0
1 376 -274 0
1 376 -262 0
1 -286 -276 0
1 -286 378 0
1 286 376 0
1 286 -374 0
1 -375 275 0
1 -375 -257 0
1 375 -379 0
1 375 365 0
1 -375 295 0
1 375 283 0
1 262 273 0
1 262 -380 0
1 262 -376 0
1 -262 -381 0
1 -382 -273 0
1 382 -380 0
1 382 250 0
1 -382 373 0
1 -382 376 0
1 -382 -270 0
1 -382 266 0
1 -382 -365 0
1 266 273 0
1 266 -383 0
1 -266 370 0
1 -266 -286 0
1 -281 276 0
1 281 271 0
1 -281 182 0
1 281 262 0
1 283 276 0
1 283 281 0
1 283 271 0
1 -283 280 0
1 384 276 0
1 384 -385 0
1 -384 -287 0
1 -384 -386 0
1 -384 -262 0
1 295 276 0
1 -295 387 0
1 -295 -287 0
1 -271 281 0
1 -271 388 0
1 378 389 0
1 378 388 0
1 378 293 0
1 -274 384 0
1 -274 -268 0
1 -274 -295 0
1 274 283 0
1 276 390 0
1 276 281 0
1 -276 -389 0
1 -276 -391 0
1 -276 -283 0
1 -276 286 0
1 292 -378 0
1 292 386 0
1 -292 -289 0
1 -293 386 0
1 392 -393 0
1 -392 271 0
1 392 386 0
1 -392 394 0
1 388 387 0
1 -388 385 0
1 -388 -386 0
1 388 294 0
1 385 -295 0
1 -386 395 0
1 386 -392 0
1 386 387 0
1 386 295 0
1 387 -392 0
1 387 389 0
1 387 386 0
1 387 -293 0
1 396 -397 0
1 -398 399 0
1 -398 -397 0
1 398 -389 0
1 -398 -394 0
1 400 395 0
1 -400 385 0
1 400 -397 0
1 -400 -401 0
1 401 385 0
1 401 397 0
1 -401 -294 0
1 394 -392 0
1 -397 396 0
1 -397 -291 0
1 294 -400 0
1 -294 392 0
1 399 401 0
1 -311 -402 0
1 311 403 0
1 311 -404 0
1 -405 402 0
1 -405 -305 0
1 -405 -406 0
1 405 -403 0
1 -405 -304 0
1 -405 311 0
1 -405 309 0
1 405 404 0
1 407 -408 0
1 -407 406 0
1 -407 318 0
1 407 409 0
1 407 404 0
1 408 410 0
1 -408 312 0
1 402 -297 0
1 402 317 0
1 -402 -407 0
1 -403 408 0
1 -403 -302 0
1 403 -411 0
1 403 -407 0
1 -403 -311 0
1 404 -408 0
1 404 -407 0
1 404 311 0
1 406 -404 0
1 317 -410 0
1 317 -409 0
1 -317 309 0
1 -319 403 0
1 -319 -325 0
1 333 402 0
1 333 -410 0
1 -333 -412 0
1 333 -331 0
1 -331 413 0
1 331 414 0
1 331 199 0
1 -331 403 0
1 331 409 0
1 331 222 0
1 -413 -408 0
1 413 415 0
1 312 -416 0
1 312 -417 0
1 -410 418 0
1 410 -407 0
1 -410 -331 0
1 409 -415 0
1 -409 407 0
1 409 319 0
1 326 -413 0
1 -326 414 0
1 -326 -210 0
1 326 -412 0
1 326 325 0
1 326 -324 0
1 -328 413 0
1 -328 -315 0
1 328 -325 0
1 328 412 0
1 -328 320 0
1 328 220 0
1 416 -413 0
1 -416 414 0
1 416 -230 0
1 416 -312 0
1 416 -412 0
1 -416 320 0
1 416 324 0
1 336 416 0
1 336 -210 0
1 -336 -412 0
1 419 420 0
1 -419 -421 0
1 419 422 0
1 -419 335 0
1 320 423 0
1 -320 310 0
1 320 328 0
1 -320 -331 0
1 -414 -314 0
1 414 415 0
1 414 412 0
1 -412 -424 0
1 -412 416 0
1 412 -333 0
1 -412 -425 0
1 -412 309 0
1 -337 -322 0
1 337 210 0
1 337 323 0
1 337 426 0
1 -335 -332 0
1 -335 -427 0
1 335 -327 0
1 335 -334 0
1 -335 -428 0
1 335 320 0
1 -335 330 0
1 -335 -324 0
1 -423 239 0
1 422 -327 0
1 -422 334 0
1 -422 320 0
1 327 -429 0
1 327 315 0
1 -327 -335 0
1 426 416 0
1 -426 348 0
1 426 -342 0
1 -426 321 0
1 427 -430 0
1 427 -416 0
1 -427 -431 0
1 427 -330 0
1 330 420 0
1 330 427 0
1 -330 -431 0
1 -330 336 0
1 -346 332 0
1 -346 -340 0
1 346 -327 0
1 -346 -432 0
1 346 433 0
1 -342 -214 0
1 342 238 0
1 -342 334 0
1 -342 338 0
1 -342 339 0
1 -342 -434 0
1 429 -249 0
1 429 435 0
1 -429 341 0
1 -429 436 0
1 429 339 0
1 348 -437 0
1 -348 438 0
1 348 -426 0
1 433 423 0
1 -433 347 0
1 -433 -345 0
1 -437 -439 0
1 437 346 0
1 437 -423 0
1 437 348 0
1 437 342 0
1 -437 422 0
1 437 345 0
1 -432 -423 0
1 -432 -440 0
1 -432 -441 0
1 432 348 0
1 -432 422 0
1 -432 442 0
1 -432 443 0
1 432 -434 0
1 -434 430 0
1 434 429 0
1 434 348 0
1 345 341 0
1 345 433 0
1 -345 436 0
1 347 435 0
1 347 -231 0
1 -347 -246 0
1 347 -441 0
1 -347 -436 0
1 -347 339 0
1 347 -343 0
1 347 -345 0
1 -352 437 0
1 -352 -435 0
1 -352 -444 0
1 353 433 0
1 -353 444 0
1 -353 445 0
1 444 446 0
1 444 447 0
1 341 -429 0
1 -341 448 0
1 341 -353 0
1 341 449 0
1 -341 -361 0
1 -341 352 0
1 -436 -450 0
1 -436 451 0
1 436 353 0
1 436 -347 0
1 436 -334 0
1 -435 -429 0
1 -435 -447 0
1 -435 -353 0
1 -435 -345 0
1 -361 -452 0
1 -361 -240 0
1 -361 252 0
1 448 349 0
1 -448 -341 0
1 448 254 0
1 -448 -231 0
1 448 240 0
1 -448 -361 0
1 448 -229 0
1 -453 341 0
1 -453 -454 0
1 453 -455 0
1 453 -264 0
1 454 -450 0
1 -454 444 0
1 -454 -456 0
1 454 -457 0
1 445 -458 0
1 -445 -360 0
1 -445 454 0
1 445 459 0
1 -445 353 0
1 -445 453 0
1 445 -361 0
1 459 368 0
1 459 360 0
1 459 448 0
1 459 -460 0
1 -459 445 0
1 452 458 0
1 -452 -461 0
1 -452 353 0
1 452 -462 0
1 461 -458 0
1 -461 454 0
1 -461 -463 0
1 -461 -464 0
1 -460 -354 0
1 460 -455 0
1 -460 -240 0
1 -460 -357 0
1 -460 445 0
1 -460 -456 0
1 -460 -457 0
1 -360 359 0
1 -360 258 0
1 -360 -356 0
1 360 357 0
1 -360 457 0
1 -367 354 0
1 -367 -459 0
1 367 465 0
1 367 456 0
1 -368 -466 0
1 -368 -467 0
1 -368 455 0
1 -368 -445 0
1 -368 457 0
1 -457 -468 0
1 457 454 0
1 -457 469 0
1 457 351 0
1 457 366 0
1 -457 -460 0
1 457 -470 0
1 -457 374 0
1 -351 454 0
1 -351 -460 0
1 -351 -470 0
1 351 374 0
1 456 -471 0
1 -456 368 0
1 -456 -454 0
1 456 469 0
1 456 464 0
1 456 460 0
1 456 453 0
1 455 471 0
1 -455 360 0
1 455 -454 0
1 -455 453 0
1 -455 470 0
1 366 -468 0
1 366 -354 0
1 -366 372 0
1 -366 -270 0
1 366 464 0
1 366 357 0
1 366 -363 0
1 468 275 0
1 468 472 0
1 -468 -458 0
1 -468 354 0
1 468 -372 0
1 468 351 0
1 468 -357 0
1 468 -457 0
1 -377 -466 0
1 -377 473 0
1 -377 372 0
1 -377 -351 0
1 -374 -466 0
1 374 474 0
1 -374 -372 0
1 374 475 0
1 -374 363 0
1 466 468 0
1 466 476 0
1 466 -477 0
1 -466 383 0
1 -478 -368 0
1 -472 349 0
1 472 -479 0
1 -472 377 0
1 472 -366 0
1 472 374 0
1 475 368 0
1 -475 366 0
1 475 480 0
1 475 -374 0
1 -373 -466 0
1 -373 370 0
1 -373 -473 0
1 373 -362 0
1 373 -281 0
1 373 -382 0
1 373 -364 0
1 373 -266 0
1 -370 -466 0
1 370 473 0
1 -370 -372 0
1 -370 362 0
1 -370 369 0
1 370 364 0
1 481 466 0
1 -481 -482 0
1 481 483 0
1 -383 484 0
1 383 382 0
1 383 -485 0
1 -383 480 0
1 -383 266 0
1 473 -486 0
1 -473 -485 0
1 -485 -393 0
1 -485 380 0
1 -485 -391 0
1 -485 -383 0
1 474 -487 0
1 474 373 0
1 474 -369 0
1 -474 477 0
1 -369 487 0
1 -369 -488 0
1 -369 -479 0
1 -369 -486 0
1 369 -383 0
1 380 -274 0
1 380 -484 0
1 380 -371 0
1 380 266 0
1 -380 262 0
1 381 276 0
1 381 473 0
1 381 380 0
1 -381 -485 0
1 381 375 0
1 -393 276 0
1 -393 -485 0
1 -391 393 0
1 -391 -482 0
1 391 274 0
1 -391 -388 0
1 -391 -489 0
1 483 -393 0
1 483 389 0
1 -483 -371 0
1 371 393 0
1 -371 -364 0
1 371 389 0
1 -482 -490 0
1 482 372 0
1 482 491 0
1 484 -490 0
1 -484 -380 0
1 -484 -482 0
1 484 -391 0
1 -484 -381 0
1 390 487 0
1 -390 -386 0
1 -390 489 0
1 -389 483 0
1 389 -486 0
1 -389 -386 0
1 389 492 0
1 -395 -400 0
1 -395 -387 0
1 395 -493 0
1 -395 371 0
1 -494 -483 0
1 494 -379 0
1 -494 401 0
1 379 395 0
1 -379 -389 0
1 -379 391 0
1 -379 492 0
1 -492 -379 0
1 492 389 0
1 493 489 0
1 415 -495 0
1 415 414 0
1 -415 -412 0
1 415 -428 0
1 -428 495 0
1 428 -413 0
1 428 415 0
1 -428 496 0
1 -428 412 0
1 428 -335 0
1 424 -495 0
1 424 -418 0
1 424 -497 0
1 -424 -496 0
1 424 411 0
1 425 -424 0
1 -425 414 0
1 425 -497 0
1 425 496 0
1 -425 411 0
1 -425 417 0
1 -498 -411 0
1 -498 431 0
1 -498 428 0
1 411 -424 0
1 411 499 0
1 -411 -428 0
1 495 -415 0
1 -495 -425 0
1 -495 428 0
1 496 -406 0
1 420 418 0
1 420 419 0
1 420 -411 0
1 420 500 0
1 -420 320 0
1 -420 -330 0
1 431 420 0
1 -431 -419 0
1 -431 -427 0
1 -501 502 0
1 501 -411 0
1 -501 500 0
1 501 417 0
1 -501 330 0
1 438 418 0
1 438 348 0
1 438 -411 0
1 438 -417 0
1 438 -503 0
1 -438 504 0
1 -438 -330 0
1 -497 -501 0
1 497 431 0
1 -497 -417 0
1 -417 430 0
1 417 -420 0
1 -417 440 0
1 417 505 0
1 418 -501 0
1 -418 -424 0
1 -418 -438 0
1 500 -506 0
1 -430 502 0
1 -430 504 0
1 -430 330 0
1 441 502 0
1 -441 -421 0
1 441 -327 0
1 441 432 0
1 -441 417 0
1 441 -426 0
1 -443 440 0
1 -443 -507 0
1 -443 508 0
1 -443 -504 0
1 -443 352 0
1 440 -509 0
1 -440 421 0
1 -440 -508 0
1 -440 507 0
1 -440 432 0
1 -440 417 0
1 -421 -450 0
1 -421 -510 0
1 421 441 0
1 421 504 0
1 421 -511 0
1 421 442 0
1 504 -430 0
1 504 -421 0
1 504 320 0
1 -504 -512 0
1 -504 -511 0
1 504 513 0
1 504 -443 0
1 502 440 0
1 -502 -438 0
1 -502 503 0
1 -502 512 0
1 -502 -514 0
1 503 -515 0
1 503 441 0
1 -503 -516 0
1 503 -514 0
1 442 451 0
1 -442 -421 0
1 -442 -436 0
1 -451 437 0
1 -451 504 0
1 -511 -435 0
1 -511 -517 0
1 511 -453 0
1 450 518 0
1 450 -439 0
1 -450 435 0
1 -450 454 0
1 450 -508 0
1 -450 436 0
1 507 -467 0
1 507 450 0
1 507 -509 0
1 507 440 0
1 -507 -327 0
1 -507 -519 0
1 -507 442 0
1 507 -443 0
1 509 520 0
1 -509 -450 0
1 -509 451 0
1 509 426 0
1 508 -450 0
1 508 -440 0
1 -508 -512 0
1 -508 -511 0
1 -521 520 0
1 -521 450 0
1 -521 440 0
1 -521 511 0
1 -521 522 0
1 -449 -518 0
1 -449 439 0
1 -449 435 0
1 449 444 0
1 449 -512 0
1 449 452 0
1 -449 509 0
1 447 -518 0
1 -447 507 0
1 465 518 0
1 465 -439 0
1 465 -461 0
1 465 -523 0
1 -467 -518 0
1 467 524 0
1 467 525 0
1 467 -461 0
1 -467 -517 0
1 -467 465 0
1 -467 -509 0
1 -523 447 0
1 -523 -526 0
1 -523 -527 0
1 -523 433 0
1 439 -471 0
1 439 447 0
1 -439 -450 0
1 -439 449 0
1 -517 -518 0
1 517 528 0
1 -517 -520 0
1 -517 467 0
1 -517 447 0
1 -517 -450 0
1 -517 529 0
1 517 -530 0
1 518 528 0
1 -518 531 0
1 -518 520 0
1 -518 -447 0
1 518 517 0
1 518 -465 0
1 -518 -449 0
1 -464 525 0
1 -464 -459 0
1 458 -525 0
1 458 461 0
1 458 455 0
1 458 -532 0
1 458 446 0
1 -527 -525 0
1 -527 529 0
1 527 462 0
1 471 463 0
1 -471 -523 0
1 -471 456 0
1 446 471 0
1 446 533 0
1 -446 -470 0
1 -525 -471 0
1 525 467 0
1 525 533 0
1 -525 527 0
1 525 465 0
1 525 446 0
1 -525 -480 0
1 525 -470 0
1 532 458 0
1 532 467 0
1 532 -534 0
1 532 526 0
1 532 -535 0
1 532 -536 0
1 532 -537 0
1 -524 458 0
1 524 -527 0
1 524 -464 0
1 -524 537 0
1 -469 -351 0
1 -469 475 0
1 -469 -470 0
1 -470 472 0
1 470 525 0
1 470 538 0
1 -533 -472 0
1 -533 463 0
1 533 539 0
1 533 -540 0
1 533 541 0
1 533 542 0
1 -533 543 0
1 -480 -472 0
1 -480 463 0
1 -480 -538 0
1 -480 533 0
1 -480 -541 0
1 480 -462 0
1 -542 -469 0
1 -542 -527 0
1 542 544 0
1 538 488 0
1 -538 459 0
1 538 -544 0
1 538 480 0
1 -538 -542 0
1 462 -471 0
1 -462 -534 0
1 462 -469 0
1 -462 545 0
1 -463 471 0
1 -463 461 0
1 463 -469 0
1 -479 -546 0
1 -479 472 0
1 -479 466 0
1 -479 474 0
1 -479 -534 0
1 -479 -538 0
1 479 475 0
1 -479 477 0
1 -477 538 0
1 477 -369 0
1 -477 -543 0
1 -488 476 0
1 -488 -538 0
1 488 540 0
1 -488 -369 0
1 -544 476 0
1 -544 -474 0
1 544 541 0
1 -544 -547 0
1 -544 -542 0
1 -546 487 0
1 -546 544 0
1 546 480 0
1 546 457 0
1 -541 490 0
1 541 479 0
1 541 351 0
1 541 486 0
1 -541 544 0
1 541 477 0
1 540 548 0
1 540 488 0
1 -540 -533 0
1 -540 549 0
1 -540 -545 0
1 540 -480 0
1 487 546 0
1 487 390 0
1 -487 482 0
1 -487 -541 0
1 -487 550 0
1 487 485 0
1 486 551 0
1 486 -487 0
1 486 -482 0
1 -486 485 0
1 486 -484 0
1 -490 -551 0
1 -490 547 0
1 490 -484 0
1 -491 -551 0
1 -491 490 0
1 491 482 0
1 491 541 0
1 476 -488 0
1 -476 -491 0
1 -476 544 0
1 -550 -490 0
1 550 -488 0
1 550 478 0
1 551 472 0
1 551 490 0
1 551 -544 0
1 -547 490 0
1 547 487 0
1 -514 -418 0
1 514 -552 0
1 515 553 0
1 -515 554 0
1 -515 -497 0
1 -515 -502 0
1 -515 -451 0
1 515 552 0
1 -515 -499 0
1 -516 -554 0
1 -516 555 0
1 556 557 0
1 -556 -450 0
1 -556 552 0
1 -556 -499 0
1 556 503 0
1 -556 -516 0
1 554 498 0
1 -554 -558 0
1 554 -556 0
1 -554 -559 0
1 499 515 0
1 -499 -516 0
1 553 -515 0
1 553 -514 0
1 552 514 0
1 512 557 0
1 -512 421 0
1 558 -557 0
1 -558 447 0
1 558 -508 0
1 558 -499 0
1 558 506 0
1 559 510 0
1 -559 508 0
1 -559 506 0
1 560 -554 0
1 -560 499 0
1 -560 506 0
1 -560 561 0
1 -555 520 0
1 555 530 0
1 -555 -505 0
1 -555 -516 0
1 -555 562 0
1 -505 -520 0
1 505 -555 0
1 -505 556 0
1 -505 -563 0
1 -505 -564 0
1 -505 516 0
1 -557 -418 0
1 -557 -558 0
1 -557 563 0
1 -557 559 0
1 -557 -512 0
1 557 -516 0
1 -506 560 0
1 -530 -520 0
1 530 -505 0
1 -520 508 0
1 520 505 0
1 520 -521 0
1 529 -518 0
1 -529 565 0
1 -529 -561 0
1 529 -513 0
1 -529 566 0
1 528 -471 0
1 528 -518 0
1 -528 -510 0
1 -528 519 0
1 -528 513 0
1 -528 -522 0
1 -510 -528 0
1 -510 560 0
1 -510 539 0
1 -510 526 0
1 -510 530 0
1 -510 513 0
1 510 -537 0
1 -513 528 0
1 -513 -530 0
1 -513 504 0
1 567 528 0
1 -567 -563 0
1 567 -559 0
1 567 -568 0
1 561 -567 0
1 561 -569 0
1 561 529 0
1 -561 559 0
1 561 -570 0
1 561 568 0
1 526 -565 0
1 526 517 0
1 -526 -532 0
1 -537 518 0
1 537 566 0
1 537 565 0
1 537 -523 0
1 -537 -513 0
1 -539 -565 0
1 -539 571 0
1 -539 -572 0
1 -539 -532 0
1 536 531 0
1 536 -539 0
1 536 -565 0
1 -536 519 0
1 519 539 0
1 519 507 0
1 -519 573 0
1 -519 -536 0
1 519 -537 0
1 -566 574 0
1 566 -575 0
1 -565 -576 0
1 565 -508 0
1 522 -577 0
1 -522 565 0
1 -522 526 0
1 522 578 0
1 522 -579 0
1 534 -525 0
1 534 463 0
1 -534 577 0
1 -534 532 0
1 534 446 0
1 534 462 0
1 -573 531 0
1 -573 524 0
1 573 -571 0
1 -573 532 0
1 573 462 0
1 580 488 0
1 -580 576 0
1 -580 571 0
1 580 -535 0
1 580 575 0
1 -575 -581 0
1 575 -463 0
1 -575 -571 0
1 -575 582 0
1 575 -566 0
1 572 -583 0
1 -572 -575 0
1 572 -573 0
1 584 439 0
1 584 -575 0
1 584 536 0
1 571 531 0
1 571 -573 0
1 531 518 0
1 -531 -585 0
1 -531 -586 0
1 -531 580 0
1 -531 -534 0
1 531 571 0
1 531 -587 0
1 -548 463 0
1 548 -545 0
1 545 572 0
1 545 -582 0
1 583 584 0
1 583 540 0
1 583 -582 0
1 -549 -584 0
1 549 583 0
1 -549 -581 0
1 -549 572 0
1 -549 582 0
1 582 588 0
1 582 -580 0
1 582 446 0
1 -588 548 0
1 -588 -582 0
1 -588 -575 0
1 -535 -581 0
1 535 545 0
1 581 -524 0
1 -581 -575 0
1 -563 589 0
1 563 -526 0
1 563 -561 0
1 -563 -562 0
1 562 -557 0
1 562 -555 0
1 562 590 0
1 562 -591 0
1 562 505 0
1 569 539 0
1 -569 590 0
1 -569 592 0
1 569 -564 0
1 -569 -561 0
1 568 -593 0
1 568 -589 0
1 568 591 0
1 -568 -536 0
1 -589 554 0
1 589 569 0
1 -589 -579 0
1 -591 -577 0
1 -591 579 0
1 591 -562 0
1 -593 563 0
1 -590 568 0
1 -590 562 0
1 -577 -589 0
1 -577 594 0
1 577 567 0
1 -577 564 0
1 577 561 0
1 579 -589 0
1 579 595 0
1 579 594 0
1 579 -510 0
1 579 -565 0
1 579 -591 0
1 -576 -580 0
1 -576 -596 0
1 -576 597 0
1 -576 564 0
1 -576 -578 0
1 -576 522 0
1 578 595 0
1 578 -575 0
1 578 -570 0
1 594 555 0
1 -594 564 0
1 -594 -577 0
1 -594 -569 0
1 594 578 0
1 -564 -586 0
1 -564 -576 0
1 564 577 0
1 564 -569 0
1 -564 -587 0
1 564 578 0
1 564 -579 0
1 -595 576 0
1 -592 -595 0
1 -592 506 0
1 -592 -578 0
1 592 568 0
1 -586 594 0
1 -586 -596 0
1 -586 565 0
1 586 571 0
1 586 574 0
1 -586 570 0
1 -574 571 0
1 574 -564 0
1 -574 570 0
1 574 598 0
1 574 522 0
1 -574 566 0
1 585 -531 0
1 585 -594 0
1 -585 587 0
1 -585 564 0
1 587 585 0
1 -587 597 0
1 -597 585 0
1 -597 -576 0
1 -597 -510 0
1 597 -598 0
1 598 -574 0
1 596 -567 0
1 596 -570 0
1 596 587 0
1 596 -578 0
1 -570 -586 0
